
<<< setup

Version identifier: 22.1.1.0 | 2022-11-27 | 9160aff4d
Tried aggregator 1 time.
LP Presolve eliminated 1042 rows and 1013 columns.
Aggregator did 3 substitutions.
Reduced LP has 9 rows, 14 columns, and 24 nonzeros.
Presolve time = 0.00 sec. (1.63 ticks)

Iteration log . . .
Iteration:     1   Dual infeasibility =            35.248713
Iteration:     7   Dual objective     =            99.799277
main returns 0

<<< main


<<< done

